Instance name:    bar-n100-5
Authors:          PDPTW Solver
Date:             2025-11-20
Reference:        LNS with SA/RTR
Solution
Route 1 : 40 90 22 30 80 72 41 91 19 69 1 2 52 43 93 51
Route 2 : 28 78 27 18 44 68 77 5 94 10 55 60 38 14 88 31 81 64
Route 3 : 48 45 95 98 42 92 29 79 26 76 9 39 59 32 82 89
Route 4 : 37 87 25 75 6 12 62 56 20 4 54 23 73 70 8 58
Route 5 : 13 63 47 34 84 97 24 46 96 74 21 7 57 71 17 67
Route 6 : 3 53 15 36 11 65 50 100 86 61 35 16 49 66 85 33 99 83
